13
50 12 40 10 38 1 40 4 14 9 5 47 
44 36 14 14 19 25 0 31 26 43 13 
45 32 15 3 43 2 46 24 26 8 
38 10 46 13 50 24 2 33 29 
49 1 39 37 15 32 11 15 
37 11 32 50 30 13 39 
33 5 16 2 3 42 
10 16 2 31 29 
26 4 5 34 
8 28 35 
21 14 
50